# Solution for model problem
# Objective value = 6
CLIENT_PE4_0 1
CLIENT_PE2_2 1
CLIENT_PE13_3 1
CLIENT_PE3_1 1
CLIENT_PE7_6 1
CLIENT_PE6_4 1
CLIENT_PE2_0 0
CLIENT_PE3_0 0
CLIENT_PE6_0 0
CLIENT_PE13_0 0
CLIENT_PE3_2 0
CLIENT_PE4_2 0
CLIENT_PE6_2 0
CLIENT_PE13_2 0
CLIENT_PE2_3 0
CLIENT_PE3_3 0
CLIENT_PE4_3 0
CLIENT_PE6_3 0
CLIENT_PE0_1 0
CLIENT_PE2_1 0
CLIENT_PE4_1 0
CLIENT_PE6_1 0
CLIENT_PE7_1 0
CLIENT_PE13_1 0
CLIENT_PE14_1 0
CLIENT_PE0_6 0
CLIENT_PE2_6 0
CLIENT_PE3_6 0
CLIENT_PE4_6 0
CLIENT_PE6_6 0
CLIENT_PE13_6 0
CLIENT_PE14_6 0
CLIENT_PE0_4 0
CLIENT_PE1_4 0
CLIENT_PE2_4 0
CLIENT_PE3_4 0
CLIENT_PE4_4 0
CLIENT_PE5_4 0
CLIENT_PE7_4 0
CLIENT_PE8_4 0
CLIENT_PE9_4 0
CLIENT_PE10_4 0
CLIENT_PE11_4 0
CLIENT_PE12_4 0
CLIENT_PE13_4 0
CLIENT_PE14_4 0
CLIENT_PE15_4 0
CLIENT_PE16_4 0
